;; sequence(s): A162897
;; terms: 2 2 3 2 4 3 4 4 5 5 6 6 7 7 8 8 9 9 10 10
;; small program: loop((1 div x) + (y div 2), x, 1) + 1
;; fast program: (2 + ((1 + (2 + x)) * (x div 2))) div (if x <= 0 then 1 else x)
(set-logic UFNIA)
(define-fun divf ((a Int) (b Int)) Int (ite (< 0 b) (div a b) (div (- a) (- b))))
(declare-fun f0 (Int Int) Int)
(declare-fun g0 (Int) Int)
(declare-fun h0 () Int)
(declare-fun u0 (Int Int) Int)
(declare-fun v0 (Int) Int)
(declare-fun small (Int) Int)
(declare-fun fast (Int) Int)
(assert (forall ((x Int) (y Int)) (= (f0 x y) (+ (divf 1 x) (divf y 2)))))
(assert (forall ((x Int)) (= (g0 x) x)))
(assert (= h0 1))
(assert (forall ((x Int) (y Int)) (= (u0 x y) (ite (<= x 0) y (f0 (u0 (- x 1) y) x)))))
(assert (forall ((x Int)) (= (v0 x) (u0 (g0 x) h0))))
(assert (forall ((x Int)) (= (small x) (+ (v0 x) 1))))
(assert (forall ((x Int)) (= (fast x) (divf (+ 2 (* (+ 1 (+ 2 x)) (divf x 2))) (ite (<= x 0) 1 x)))))
(assert (exists ((c Int)) (and (>= c 0) (not (= (small c) (fast c))))))
(check-sat)
